50

100 25 223
100 12 442
99 3 215
96 25 456
96 38 438
93 10 333
91 20 358
90 25 359
90 26 549
87 36 563
84 9 291
83 30 294
80 17 211
80 10 508
80 21 287
75 6 320
74 2 403
72 20 489
72 32 558
71 9 346
71 35 421
70 2 558
69 1 536
66 16 512
65 6 580
63 26 287
60 27 456
58 2 511
57 3 444
56 27 346
54 25 358
54 26 219
53 20 566
53 25 322
53 6 553
51 19 404
51 18 220
49 17 472
46 19 471
43 22 294
40 20 514
39 3 267
38 18 537
37 16 311
37 16 297
34 10 366
33 3 539
33 9 237
31 9 239
31 2 591
